\ENCODING=ISO-8859-1
\Problem name: ilog.cplex

Minimize
 obj1: 107248 x1 + 109597 x2 + 100218 x3 + 99276 x4 + 97027 x5 + 107980 x6
       + 98555 x7 + 102698 x8 + 106394 x9 + 92059 x10 + 108030 x11 + 97028 x12
       + 96482 x13 + 91613 x14 + 97726 x15 + 90225 x16 + 102188 x17
       + 108485 x18 + 106960 x19 + 97382 x20 + 98357 x21 + 103504 x22
       + 100277 x23 + 105703 x24 + 103142 x25 + 98541 x26 + 97041 x27
       + 90740 x28 + 97232 x29 + 100920 x30 + 102070 x31 + 109267 x32
       + 94524 x33 + 101360 x34 + 105957 x35 + 95898 x36 + 92379 x37
       + 101162 x38 + 91566 x39 + 102923 x40 + 97693 x41 + 109520 x42
       + 96633 x43 + 105822 x44 + 108817 x45 + 97650 x46 + 101491 x47
       + 90535 x48 + 92747 x49 + 102866 x50 + 95654 x51 + 102801 x52
       + 92021 x53 + 102745 x54 + 107304 x55 + 94737 x56 + 106408 x57
       + 107246 x58 + 95711 x59 + 109325 x60 + 99595 x61 + 92131 x62
       + 108228 x63 + 90271 x64 + 105994 x65 + 107370 x66 + 92769 x67
       + 91129 x68 + 92855 x69 + 94365 x70 + 94899 x71 + 103676 x72 + 92803 x73
       + 100353 x74 + 103652 x75 + 104179 x76 + 106598 x77 + 93934 x78
       + 93805 x79 + 104882 x80 + 95126 x81 + 108024 x82 + 99205 x83
       + 108968 x84 + 100128 x85 + 96479 x86 + 98118 x87 + 98032 x88
       + 100724 x89 + 108387 x90 + 95634 x91 + 108799 x92 + 93935 x93
       + 90931 x94 + 102107 x95 + 108066 x96 + 99110 x97 + 94266 x98
       + 101169 x99 + 92649 x100 + 108547 x101 + 109948 x102 + 95992 x103
       + 104582 x104 + 99595 x105 + 108277 x106 + 98330 x107 + 100917 x108
       + 107100 x109 + 109280 x110 + 101254 x111 + 92137 x112 + 109347 x113
       + 107075 x114 + 93558 x115 + 103583 x116 + 105465 x117 + 108025 x118
       + 91494 x119 + 100197 x120 + 106504 x121 + 98748 x122 + 96703 x123
       + 108894 x124 + 90949 x125 + 98653 x126 + 106953 x127 + 98643 x128
       + 106533 x129 + 98002 x130 + 105128 x131 + 91382 x132 + 108158 x133
       + 106062 x134 + 103781 x135 + 97514 x136 + 101170 x137 + 95966 x138
       + 107011 x139 + 90571 x140 + 95288 x141 + 105888 x142 + 91592 x143
       + 94617 x144 + 103455 x145 + 105671 x146 + 103264 x147 + 105539 x148
       + 96087 x149 + 108804 x150 + 97493 x151 + 109103 x152 + 97793 x153
       + 100739 x154 + 90943 x155 + 102551 x156 + 95832 x157 + 96289 x158
       + 102361 x159 + 91091 x160 + 97422 x161 + 91194 x162 + 109792 x163
       + 95776 x164 + 106449 x165 + 95955 x166 + 94740 x167 + 95110 x168
       + 109233 x169 + 93625 x170 + 103344 x171 + 109097 x172 + 103697 x173
       + 107503 x174 + 109625 x175 + 101546 x176 + 96623 x177 + 99525 x178
       + 96513 x179 + 104082 x180 + 93653 x181 + 96118 x182 + 90628 x183
       + 96664 x184 + 104196 x185 + 98552 x186 + 91331 x187 + 106891 x188
       + 102738 x189 + 108437 x190 + 95083 x191 + 90078 x192 + 90333 x193
       + 109611 x194 + 107555 x195 + 93387 x196 + 99061 x197 + 109715 x198
       + 103281 x199 + 90790 x200 + 107743 x201 + 94327 x202 + 101167 x203
       + 103782 x204 + 91059 x205 + 93594 x206 + 107177 x207 + 103741 x208
       + 109445 x209 + 92178 x210 + 96921 x211 + 90579 x212 + 100457 x213
       + 99870 x214 + 91922 x215 + 109202 x216 + 106178 x217 + 92480 x218
       + 95141 x219 + 107839 x220 + 105843 x221 + 90408 x222 + 93642 x223
       + 100423 x224 + 97995 x225 + 105767 x226 + 109319 x227 + 108990 x228
       + 92297 x229 + 98032 x230 + 102185 x231 + 91458 x232 + 107569 x233
       + 92860 x234 + 104973 x235 + 105154 x236 + 109635 x237 + 99085 x238
       + 92673 x239 + 97117 x240 + 108466 x241 + 106862 x242 + 105359 x243
       + 94682 x244 + 92010 x245 + 101161 x246 + 92136 x247 + 100519 x248
       + 109824 x249 + 95405 x250 + 96119 x251 + 92869 x252 + 100616 x253
       + 103826 x254 + 105876 x255 + 100524 x256 + 105524 x257 + 98699 x258
       + 95892 x259 + 97899 x260 + 95348 x261 + 91365 x262 + 99808 x263
       + 100027 x264 + 92242 x265 + 90720 x266 + 108756 x267 + 91471 x268
       + 104564 x269 + 94385 x270 + 105889 x271 + 94663 x272 + 94805 x273
       + 91021 x274 + 104812 x275 + 94291 x276 + 97465 x277 + 96209 x278
       + 101801 x279 + 96099 x280 + 96211 x281 + 108869 x282 + 99544 x283
       + 90812 x284 + 97848 x285 + 100335 x286 + 93591 x287 + 96911 x288
       + 104352 x289 + 94052 x290 + 91782 x291 + 109573 x292 + 103660 x293
       + 100237 x294 + 101627 x295 + 107343 x296 + 94885 x297 + 96935 x298
       + 90955 x299 + 102962 x300 + 90275 x301 + 94716 x302 + 105340 x303
       + 109353 x304 + 95229 x305 + 92662 x306 + 91864 x307 + 109134 x308
       + 105745 x309 + 95541 x310 + 90833 x311 + 100087 x312 + 92584 x313
       + 93764 x314 + 97816 x315 + 100128 x316 + 101329 x317 + 91895 x318
       + 102003 x319 + 106461 x320 + 94208 x321 + 97088 x322 + 95184 x323
       + 106829 x324 + 109732 x325 + 103180 x326 + 107285 x327 + 93449 x328
       + 107988 x329 + 104418 x330 + 91443 x331 + 91046 x332 + 99890 x333
       + 104094 x334 + 94944 x335 + 96995 x336 + 99836 x337 + 90222 x338
       + 106230 x339 + 103781 x340 + 92944 x341 + 92951 x342 + 102760 x343
       + 91817 x344 + 90388 x345 + 96514 x346 + 99674 x347 + 104123 x348
       + 99382 x349 + 92315 x350 + 95016 x351 + 103445 x352 + 97927 x353
       + 109128 x354 + 103686 x355 + 107097 x356 + 98705 x357 + 101412 x358
       + 109363 x359 + 95170 x360 + 93648 x361 + 107918 x362 + 104781 x363
       + 101131 x364 + 105628 x365 + 102089 x366 + 104088 x367 + 104056 x368
       + 100988 x369 + 90201 x370 + 106606 x371 + 97677 x372 + 97708 x373
       + 108530 x374 + 97800 x375 + 102761 x376 + 96501 x377 + 100071 x378
       + 105182 x379 + 100335 x380 + 104494 x381 + 92248 x382 + 104371 x383
       + 91281 x384 + 103397 x385 + 106361 x386 + 106980 x387 + 96559 x388
       + 102945 x389 + 109396 x390 + 99645 x391 + 108863 x392 + 91338 x393
       + 99361 x394 + 104749 x395 + 109827 x396 + 91007 x397 + 106364 x398
       + 90326 x399 + 90815 x400 + 90220 x401 + 93435 x402 + 109120 x403
       + 99888 x404 + 108878 x405 + 93445 x406 + 94933 x407 + 102706 x408
       + 90335 x409 + 101438 x410 + 108159 x411 + 90934 x412 + 90106 x413
       + 95351 x414 + 101809 x415 + 98148 x416 + 97093 x417 + 102284 x418
       + 94321 x419 + 90267 x420 + 105247 x421 + 93526 x422 + 107966 x423
       + 103268 x424 + 105044 x425 + 109742 x426 + 91208 x427 + 92929 x428
       + 91788 x429 + 108768 x430 + 101369 x431 + 93984 x432 + 109679 x433
       + 108828 x434 + 108710 x435 + 97876 x436 + 104246 x437 + 95711 x438
       + 101215 x439 + 104670 x440 + 101479 x441 + 104998 x442 + 98345 x443
       + 103134 x444 + 100692 x445 + 106057 x446 + 95440 x447 + 103837 x448
       + 107092 x449 + 98902 x450 + 92223 x451 + 109871 x452 + 102672 x453
       + 95943 x454 + 109358 x455 + 101085 x456 + 107339 x457 + 107281 x458
       + 98113 x459 + 94614 x460 + 96148 x461 + 100364 x462 + 99931 x463
       + 106991 x464 + 93024 x465 + 102677 x466 + 95071 x467 + 101303 x468
       + 96564 x469 + 99593 x470 + 92463 x471 + 96579 x472 + 109282 x473
       + 108599 x474 + 96542 x475 + 106039 x476 + 98121 x477 + 105786 x478
       + 101064 x479 + 95819 x480 + 96445 x481 + 92349 x482 + 102999 x483
       + 99196 x484 + 95603 x485 + 97270 x486 + 90906 x487 + 105279 x488
       + 92624 x489 + 106037 x490 + 98798 x491 + 91643 x492 + 102663 x493
       + 96296 x494 + 91402 x495 + 95456 x496 + 101645 x497 + 93611 x498
       + 90683 x499 + 104221 x500 + 101869 x501 + 100260 x502 + 90537 x503
       + 105726 x504 + 102520 x505 + 104034 x506 + 95514 x507 + 92563 x508
       + 109374 x509 + 90805 x510 + 104992 x511 + 97479 x512 + 103629 x513
       + 107307 x514 + 95154 x515 + 96309 x516 + 101050 x517 + 103852 x518
       + 107714 x519 + 106387 x520 + 99532 x521 + 90653 x522 + 96526 x523
       + 90018 x524 + 105674 x525 + 105967 x526 + 91078 x527 + 104998 x528
       + 99139 x529 + 99448 x530 + 109287 x531 + 107146 x532 + 97311 x533
       + 99890 x534 + 91129 x535 + 103417 x536 + 102173 x537 + 102997 x538
       + 109323 x539 + 98407 x540 + 91932 x541 + 105896 x542 + 90220 x543
       + 101276 x544 + 90845 x545 + 93661 x546 + 98015 x547 + 107610 x548
       + 94369 x549 + 109037 x550 + 105329 x551 + 98286 x552 + 98954 x553
       + 97281 x554 + 93324 x555 + 97114 x556 + 106051 x557 + 104886 x558
       + 98572 x559 + 102175 x560 + 104163 x561 + 106145 x562 + 109169 x563
       + 106864 x564 + 95150 x565 + 100501 x566 + 92131 x567 + 92260 x568
       + 104022 x569 + 100270 x570 + 93614 x571 + 102525 x572 + 91283 x573
       + 103982 x574 + 106241 x575 + 96005 x576 + 97416 x577 + 101851 x578
       + 91060 x579 + 91294 x580 + 90176 x581 + 106766 x582 + 95615 x583
       + 99711 x584 + 97131 x585 + 106742 x586 + 104167 x587 + 93493 x588
       + 108217 x589 + 92893 x590 + 91249 x591 + 102449 x592 + 106104 x593
       + 90755 x594 + 105568 x595 + 100898 x596 + 105735 x597 + 92208 x598
       + 107688 x599 + 150913 x600 + 371221 x601 + 374679 x602 + 430845 x603
       + 379877 x604 + 383970 x605 + 360330 x606 + 403766 x607 + 406886 x608
       + 385018 x609 + 434438 x610 + 419067 x611 + 422314 x612 + 421918 x613
       + 380203 x614 + 425192 x615 + 407940 x616 + 398159 x617 + 405987 x618
       + 382691 x619 + 365995 x620 + 418143 x621 + 383220 x622 + 379758 x623
       + 394115 x624 + 426249 x625 + 376473 x626 + 367158 x627 + 372895 x628
       + 399811 x629 + 401870 x630 + 434285 x631 + 368800 x632 + 411559 x633
       + 400106 x634 + 397541 x635 + 389062 x636 + 420246 x637 + 407894 x638
       + 409209 x639 + 366480 x640 + 438912 x641 + 416766 x642 + 399402 x643
       + 360914 x644 + 368422 x645 + 380714 x646 + 395659 x647 + 380538 x648
       + 389631 x649 + 394240 x650 + 364198 x651 + 389793 x652 + 420719 x653
       + 409970 x654 + 383786 x655 + 382283 x656 + 366964 x657 + 400045 x658
       + 417650 x659 + 654024 x660
Subject To
 c1:   - x3 - x4 - x8 + x14 - x21 - x25 + x41 + x47 + x51 - x52 - x53 - x56
        = 0
 c2:   - x63 - x64 - x68 + x74 - x81 - x85 + x101 + x107 + x111 - x112 - x113
       - x116  = 0
 c3:   - x123 - x124 - x128 + x134 - x141 - x145 + x161 + x167 + x171 - x172
       - x173 - x176  = 0
 c4:   - x183 - x184 - x188 + x194 - x201 - x205 + x221 + x227 + x231 - x232
       - x233 - x236  = 0
 c5:   - x243 - x244 - x248 + x254 - x261 - x265 + x281 + x287 + x291 - x292
       - x293 - x296  = 0
 c6:   - x303 - x304 - x308 + x314 - x321 - x325 + x341 + x347 + x351 - x352
       - x353 - x356  = 0
 c7:   - x363 - x364 - x368 + x374 - x381 - x385 + x401 + x407 + x411 - x412
       - x413 - x416  = 0
 c8:   - x423 - x424 - x428 + x434 - x441 - x445 + x461 + x467 + x471 - x472
       - x473 - x476  = 0
 c9:   - x483 - x484 - x488 + x494 - x501 - x505 + x521 + x527 + x531 - x532
       - x533 - x536  = 0
 c10:  - x543 - x544 - x548 + x554 - x561 - x565 + x581 + x587 + x591 - x592
       - x593 - x596  = 0
 c11:  x4 + x6 + x39 - x43 - x54  = 0
 c12:  x64 + x66 + x99 - x103 - x114  = 0
 c13:  x124 + x126 + x159 - x163 - x174  = 0
 c14:  x184 + x186 + x219 - x223 - x234  = 0
 c15:  x244 + x246 + x279 - x283 - x294  = 0
 c16:  x304 + x306 + x339 - x343 - x354  = 0
 c17:  x364 + x366 + x399 - x403 - x414  = 0
 c18:  x424 + x426 + x459 - x463 - x474  = 0
 c19:  x484 + x486 + x519 - x523 - x534  = 0
 c20:  x544 + x546 + x579 - x583 - x594  = 0
 c21:  - x15 + x22 - x23 + x25 - x26 + x49 + x58  = 0
 c22:  - x75 + x82 - x83 + x85 - x86 + x109 + x118  = 0
 c23:  - x135 + x142 - x143 + x145 - x146 + x169 + x178  = 0
 c24:  - x195 + x202 - x203 + x205 - x206 + x229 + x238  = 0
 c25:  - x255 + x262 - x263 + x265 - x266 + x289 + x298  = 0
 c26:  - x315 + x322 - x323 + x325 - x326 + x349 + x358  = 0
 c27:  - x375 + x382 - x383 + x385 - x386 + x409 + x418  = 0
 c28:  - x435 + x442 - x443 + x445 - x446 + x469 + x478  = 0
 c29:  - x495 + x502 - x503 + x505 - x506 + x529 + x538  = 0
 c30:  - x555 + x562 - x563 + x565 - x566 + x589 + x598  = 0
 c31:  - x6 - x12 - x13 + x15 + x20 - x28 + x52  = 0
 c32:  - x66 - x72 - x73 + x75 + x80 - x88 + x112  = 0
 c33:  - x126 - x132 - x133 + x135 + x140 - x148 + x172  = 0
 c34:  - x186 - x192 - x193 + x195 + x200 - x208 + x232  = 0
 c35:  - x246 - x252 - x253 + x255 + x260 - x268 + x292  = 0
 c36:  - x306 - x312 - x313 + x315 + x320 - x328 + x352  = 0
 c37:  - x366 - x372 - x373 + x375 + x380 - x388 + x412  = 0
 c38:  - x426 - x432 - x433 + x435 + x440 - x448 + x472  = 0
 c39:  - x486 - x492 - x493 + x495 + x500 - x508 + x532  = 0
 c40:  - x546 - x552 - x553 + x555 + x560 - x568 + x592  = 0
 c41:  - x1 - x2 + x8 + x33 - x45 + x55 - x57 + x59  = 0
 c42:  - x61 - x62 + x68 + x93 - x105 + x115 - x117 + x119  = 0
 c43:  - x121 - x122 + x128 + x153 - x165 + x175 - x177 + x179  = 0
 c44:  - x181 - x182 + x188 + x213 - x225 + x235 - x237 + x239  = -1
 c45:  - x241 - x242 + x248 + x273 - x285 + x295 - x297 + x299  = 0
 c46:  - x301 - x302 + x308 + x333 - x345 + x355 - x357 + x359  = 1
 c47:  - x361 - x362 + x368 + x393 - x405 + x415 - x417 + x419  = 0
 c48:  - x421 - x422 + x428 + x453 - x465 + x475 - x477 + x479  = 0
 c49:  - x481 - x482 + x488 + x513 - x525 + x535 - x537 + x539  = 0
 c50:  - x541 - x542 + x548 + x573 - x585 + x595 - x597 + x599  = 0
 c51:  - x7 - x9 + x24 + x26 + x36 - x37 + x45 + x53 - x58  = -1
 c52:  - x67 - x69 + x84 + x86 + x96 - x97 + x105 + x113 - x118  = 0
 c53:  - x127 - x129 + x144 + x146 + x156 - x157 + x165 + x173 - x178  = 0
 c54:  - x187 - x189 + x204 + x206 + x216 - x217 + x225 + x233 - x238  = 0
 c55:  - x247 - x249 + x264 + x266 + x276 - x277 + x285 + x293 - x298  = 0
 c56:  - x307 - x309 + x324 + x326 + x336 - x337 + x345 + x353 - x358  = 0
 c57:  - x367 - x369 + x384 + x386 + x396 - x397 + x405 + x413 - x418  = 1
 c58:  - x427 - x429 + x444 + x446 + x456 - x457 + x465 + x473 - x478  = 0
 c59:  - x487 - x489 + x504 + x506 + x516 - x517 + x525 + x533 - x538  = 0
 c60:  - x547 - x549 + x564 + x566 + x576 - x577 + x585 + x593 - x598  = 0
 c61:  x5 + x17 + x28 + x32 + x34 - x35 - x59  = 0
 c62:  x65 + x77 + x88 + x92 + x94 - x95 - x119  = 0
 c63:  x125 + x137 + x148 + x152 + x154 - x155 - x179  = 0
 c64:  x185 + x197 + x208 + x212 + x214 - x215 - x239  = 0
 c65:  x245 + x257 + x268 + x272 + x274 - x275 - x299  = 0
 c66:  x305 + x317 + x328 + x332 + x334 - x335 - x359  = 0
 c67:  x365 + x377 + x388 + x392 + x394 - x395 - x419  = 0
 c68:  x425 + x437 + x448 + x452 + x454 - x455 - x479  = 0
 c69:  x485 + x497 + x508 + x512 + x514 - x515 - x539  = 0
 c70:  x545 + x557 + x568 + x572 + x574 - x575 - x599  = 0
 c71:  - x10 - x18 - x19 + x21 + x30 - x34 - x41  = 0
 c72:  - x70 - x78 - x79 + x81 + x90 - x94 - x101  = 0
 c73:  - x130 - x138 - x139 + x141 + x150 - x154 - x161  = 1
 c74:  - x190 - x198 - x199 + x201 + x210 - x214 - x221  = 0
 c75:  - x250 - x258 - x259 + x261 + x270 - x274 - x281  = 0
 c76:  - x310 - x318 - x319 + x321 + x330 - x334 - x341  = 0
 c77:  - x370 - x378 - x379 + x381 + x390 - x394 - x401  = 0
 c78:  - x430 - x438 - x439 + x441 + x450 - x454 - x461  = 0
 c79:  - x490 - x498 - x499 + x501 + x510 - x514 - x521  = 0
 c80:  - x550 - x558 - x559 + x561 + x570 - x574 - x581  = 0
 c81:  x27 + x35 - x38 - x39 + x42 - x49  = 0
 c82:  x87 + x95 - x98 - x99 + x102 - x109  = 0
 c83:  x147 + x155 - x158 - x159 + x162 - x169  = -1
 c84:  x207 + x215 - x218 - x219 + x222 - x229  = 0
 c85:  x267 + x275 - x278 - x279 + x282 - x289  = 0
 c86:  x327 + x335 - x338 - x339 + x342 - x349  = 0
 c87:  x387 + x395 - x398 - x399 + x402 - x409  = -1
 c88:  x447 + x455 - x458 - x459 + x462 - x469  = 0
 c89:  x507 + x515 - x518 - x519 + x522 - x529  = 1
 c90:  x567 + x575 - x578 - x579 + x582 - x589  = 1
 c91:  x2 - x14 - x27 - x32 - x44 - x46 + x48 + x54 + x60  = 0
 c92:  x62 - x74 - x87 - x92 - x104 - x106 + x108 + x114 + x120  = 0
 c93:  x122 - x134 - x147 - x152 - x164 - x166 + x168 + x174 + x180  = 0
 c94:  x182 - x194 - x207 - x212 - x224 - x226 + x228 + x234 + x240  = 0
 c95:  x242 - x254 - x267 - x272 - x284 - x286 + x288 + x294 + x300  = 0
 c96:  x302 - x314 - x327 - x332 - x344 - x346 + x348 + x354 + x360  = -1
 c97:  x362 - x374 - x387 - x392 - x404 - x406 + x408 + x414 + x420  = 0
 c98:  x422 - x434 - x447 - x452 - x464 - x466 + x468 + x474 + x480  = 1
 c99:  x482 - x494 - x507 - x512 - x524 - x526 + x528 + x534 + x540  = 0
 c100: x542 - x554 - x567 - x572 - x584 - x586 + x588 + x594 + x600  = 0
 c101: x1 + x3 + x7 - x11 + x12 - x16 - x17 + x18 - x22 + x23 + x38 + x40 - x55
        = 1
 c102: x61 + x63 + x67 - x71 + x72 - x76 - x77 + x78 - x82 + x83 + x98 + x100
       - x115  = 0
 c103: x121 + x123 + x127 - x131 + x132 - x136 - x137 + x138 - x142 + x143
       + x158 + x160 - x175  = 0
 c104: x181 + x183 + x187 - x191 + x192 - x196 - x197 + x198 - x202 + x203
       + x218 + x220 - x235  = 0
 c105: x241 + x243 + x247 - x251 + x252 - x256 - x257 + x258 - x262 + x263
       + x278 + x280 - x295  = 0
 c106: x301 + x303 + x307 - x311 + x312 - x316 - x317 + x318 - x322 + x323
       + x338 + x340 - x355  = 0
 c107: x361 + x363 + x367 - x371 + x372 - x376 - x377 + x378 - x382 + x383
       + x398 + x400 - x415  = 0
 c108: x421 + x423 + x427 - x431 + x432 - x436 - x437 + x438 - x442 + x443
       + x458 + x460 - x475  = 0
 c109: x481 + x483 + x487 - x491 + x492 - x496 - x497 + x498 - x502 + x503
       + x518 + x520 - x535  = 0
 c110: x541 + x543 + x547 - x551 + x552 - x556 - x557 + x558 - x562 + x563
       + x578 + x580 - x595  = -1
 c111: x11 + x29 - x30 + x31 - x36 + x37 - x42 - x48 + x56  = 0
 c112: x71 + x89 - x90 + x91 - x96 + x97 - x102 - x108 + x116  = 1
 c113: x131 + x149 - x150 + x151 - x156 + x157 - x162 - x168 + x176  = 0
 c114: x191 + x209 - x210 + x211 - x216 + x217 - x222 - x228 + x236  = 1
 c115: x251 + x269 - x270 + x271 - x276 + x277 - x282 - x288 + x296  = 1
 c116: x311 + x329 - x330 + x331 - x336 + x337 - x342 - x348 + x356  = 0
 c117: x371 + x389 - x390 + x391 - x396 + x397 - x402 - x408 + x416  = 0
 c118: x431 + x449 - x450 + x451 - x456 + x457 - x462 - x468 + x476  = 0
 c119: x491 + x509 - x510 + x511 - x516 + x517 - x522 - x528 + x536  = -1
 c120: x551 + x569 - x570 + x571 - x576 + x577 - x582 - x588 + x596  = 0
 c121: x16 + x19 - x24 - x31 - x33 - x40 - x50 - x51 - x60  = 0
 c122: x76 + x79 - x84 - x91 - x93 - x100 - x110 - x111 - x120  = 0
 c123: x136 + x139 - x144 - x151 - x153 - x160 - x170 - x171 - x180  = 0
 c124: x196 + x199 - x204 - x211 - x213 - x220 - x230 - x231 - x240  = 0
 c125: x256 + x259 - x264 - x271 - x273 - x280 - x290 - x291 - x300  = -1
 c126: x316 + x319 - x324 - x331 - x333 - x340 - x350 - x351 - x360  = 0
 c127: x376 + x379 - x384 - x391 - x393 - x400 - x410 - x411 - x420  = 0
 c128: x436 + x439 - x444 - x451 - x453 - x460 - x470 - x471 - x480  = -1
 c129: x496 + x499 - x504 - x511 - x513 - x520 - x530 - x531 - x540  = 0
 c130: x556 + x559 - x564 - x571 - x573 - x580 - x590 - x591 - x600  = 0
 c131: x13 - x29 + x43 + x46 + x50  = 0
 c132: x73 - x89 + x103 + x106 + x110  = -1
 c133: x133 - x149 + x163 + x166 + x170  = 0
 c134: x193 - x209 + x223 + x226 + x230  = 0
 c135: x253 - x269 + x283 + x286 + x290  = 0
 c136: x313 - x329 + x343 + x346 + x350  = 0
 c137: x373 - x389 + x403 + x406 + x410  = 0
 c138: x433 - x449 + x463 + x466 + x470  = 0
 c139: x493 - x509 + x523 + x526 + x530  = 0
 c140: x553 - x569 + x583 + x586 + x590  = 0
 c141: - x5 + x9 + x10 - x20 + x44 - x47 + x57  = 0
 c142: - x65 + x69 + x70 - x80 + x104 - x107 + x117  = 0
 c143: - x125 + x129 + x130 - x140 + x164 - x167 + x177  = 0
 c144: - x185 + x189 + x190 - x200 + x224 - x227 + x237  = 0
 c145: - x245 + x249 + x250 - x260 + x284 - x287 + x297  = 0
 c146: - x305 + x309 + x310 - x320 + x344 - x347 + x357  = 0
 c147: - x365 + x369 + x370 - x380 + x404 - x407 + x417  = 0
 c148: - x425 + x429 + x430 - x440 + x464 - x467 + x477  = 0
 c149: - x485 + x489 + x490 - x500 + x524 - x527 + x537  = 0
 c150: - x545 + x549 + x550 - x560 + x584 - x587 + x597  = 0
 c151: 4 x1 + 4 x61 + 4 x121 + 4 x181 + 4 x241 + 4 x301 + 4 x361 + 4 x421
       + 4 x481 + 4 x541 - 5 x601 <= 0
 c152: 4 x2 + 4 x62 + 4 x122 + 4 x182 + 4 x242 + 4 x302 + 4 x362 + 4 x422
       + 4 x482 + 4 x542 - 5 x602 <= 0
 c153: 4 x3 + 4 x63 + 4 x123 + 4 x183 + 4 x243 + 4 x303 + 4 x363 + 4 x423
       + 4 x483 + 4 x543 - 5 x603 <= 0
 c154: 4 x4 + 4 x64 + 4 x124 + 4 x184 + 4 x244 + 4 x304 + 4 x364 + 4 x424
       + 4 x484 + 4 x544 - 5 x604 <= 0
 c155: 4 x5 + 4 x65 + 4 x125 + 4 x185 + 4 x245 + 4 x305 + 4 x365 + 4 x425
       + 4 x485 + 4 x545 - 5 x605 <= 0
 c156: 4 x6 + 4 x66 + 4 x126 + 4 x186 + 4 x246 + 4 x306 + 4 x366 + 4 x426
       + 4 x486 + 4 x546 - 5 x606 <= 0
 c157: 4 x7 + 4 x67 + 4 x127 + 4 x187 + 4 x247 + 4 x307 + 4 x367 + 4 x427
       + 4 x487 + 4 x547 - 5 x607 <= 0
 c158: 4 x8 + 4 x68 + 4 x128 + 4 x188 + 4 x248 + 4 x308 + 4 x368 + 4 x428
       + 4 x488 + 4 x548 - 5 x608 <= 0
 c159: 4 x9 + 4 x69 + 4 x129 + 4 x189 + 4 x249 + 4 x309 + 4 x369 + 4 x429
       + 4 x489 + 4 x549 - 5 x609 <= 0
 c160: 4 x10 + 4 x70 + 4 x130 + 4 x190 + 4 x250 + 4 x310 + 4 x370 + 4 x430
       + 4 x490 + 4 x550 - 5 x610 <= 0
 c161: 4 x11 + 4 x71 + 4 x131 + 4 x191 + 4 x251 + 4 x311 + 4 x371 + 4 x431
       + 4 x491 + 4 x551 - 5 x611 <= 0
 c162: 4 x12 + 4 x72 + 4 x132 + 4 x192 + 4 x252 + 4 x312 + 4 x372 + 4 x432
       + 4 x492 + 4 x552 - 5 x612 <= 0
 c163: 4 x13 + 4 x73 + 4 x133 + 4 x193 + 4 x253 + 4 x313 + 4 x373 + 4 x433
       + 4 x493 + 4 x553 - 5 x613 <= 0
 c164: 4 x14 + 4 x74 + 4 x134 + 4 x194 + 4 x254 + 4 x314 + 4 x374 + 4 x434
       + 4 x494 + 4 x554 - 5 x614 <= 0
 c165: 4 x15 + 4 x75 + 4 x135 + 4 x195 + 4 x255 + 4 x315 + 4 x375 + 4 x435
       + 4 x495 + 4 x555 - 5 x615 <= 0
 c166: 4 x16 + 4 x76 + 4 x136 + 4 x196 + 4 x256 + 4 x316 + 4 x376 + 4 x436
       + 4 x496 + 4 x556 - 5 x616 <= 0
 c167: 4 x17 + 4 x77 + 4 x137 + 4 x197 + 4 x257 + 4 x317 + 4 x377 + 4 x437
       + 4 x497 + 4 x557 - 5 x617 <= 0
 c168: 4 x18 + 4 x78 + 4 x138 + 4 x198 + 4 x258 + 4 x318 + 4 x378 + 4 x438
       + 4 x498 + 4 x558 - 5 x618 <= 0
 c169: 4 x19 + 4 x79 + 4 x139 + 4 x199 + 4 x259 + 4 x319 + 4 x379 + 4 x439
       + 4 x499 + 4 x559 - 5 x619 <= 0
 c170: 4 x20 + 4 x80 + 4 x140 + 4 x200 + 4 x260 + 4 x320 + 4 x380 + 4 x440
       + 4 x500 + 4 x560 - 5 x620 <= 0
 c171: 4 x21 + 4 x81 + 4 x141 + 4 x201 + 4 x261 + 4 x321 + 4 x381 + 4 x441
       + 4 x501 + 4 x561 - 5 x621 <= 0
 c172: 4 x22 + 4 x82 + 4 x142 + 4 x202 + 4 x262 + 4 x322 + 4 x382 + 4 x442
       + 4 x502 + 4 x562 - 5 x622 <= 0
 c173: 4 x23 + 4 x83 + 4 x143 + 4 x203 + 4 x263 + 4 x323 + 4 x383 + 4 x443
       + 4 x503 + 4 x563 - 5 x623 <= 0
 c174: 4 x24 + 4 x84 + 4 x144 + 4 x204 + 4 x264 + 4 x324 + 4 x384 + 4 x444
       + 4 x504 + 4 x564 - 5 x624 <= 0
 c175: 4 x25 + 4 x85 + 4 x145 + 4 x205 + 4 x265 + 4 x325 + 4 x385 + 4 x445
       + 4 x505 + 4 x565 - 5 x625 <= 0
 c176: 4 x26 + 4 x86 + 4 x146 + 4 x206 + 4 x266 + 4 x326 + 4 x386 + 4 x446
       + 4 x506 + 4 x566 - 5 x626 <= 0
 c177: 4 x27 + 4 x87 + 4 x147 + 4 x207 + 4 x267 + 4 x327 + 4 x387 + 4 x447
       + 4 x507 + 4 x567 - 5 x627 <= 0
 c178: 4 x28 + 4 x88 + 4 x148 + 4 x208 + 4 x268 + 4 x328 + 4 x388 + 4 x448
       + 4 x508 + 4 x568 - 5 x628 <= 0
 c179: 4 x29 + 4 x89 + 4 x149 + 4 x209 + 4 x269 + 4 x329 + 4 x389 + 4 x449
       + 4 x509 + 4 x569 - 5 x629 <= 0
 c180: 4 x30 + 4 x90 + 4 x150 + 4 x210 + 4 x270 + 4 x330 + 4 x390 + 4 x450
       + 4 x510 + 4 x570 - 5 x630 <= 0
 c181: 4 x31 + 4 x91 + 4 x151 + 4 x211 + 4 x271 + 4 x331 + 4 x391 + 4 x451
       + 4 x511 + 4 x571 - 5 x631 <= 0
 c182: 4 x32 + 4 x92 + 4 x152 + 4 x212 + 4 x272 + 4 x332 + 4 x392 + 4 x452
       + 4 x512 + 4 x572 - 5 x632 <= 0
 c183: 4 x33 + 4 x93 + 4 x153 + 4 x213 + 4 x273 + 4 x333 + 4 x393 + 4 x453
       + 4 x513 + 4 x573 - 5 x633 <= 0
 c184: 4 x34 + 4 x94 + 4 x154 + 4 x214 + 4 x274 + 4 x334 + 4 x394 + 4 x454
       + 4 x514 + 4 x574 - 5 x634 <= 0
 c185: 4 x35 + 4 x95 + 4 x155 + 4 x215 + 4 x275 + 4 x335 + 4 x395 + 4 x455
       + 4 x515 + 4 x575 - 5 x635 <= 0
 c186: 4 x36 + 4 x96 + 4 x156 + 4 x216 + 4 x276 + 4 x336 + 4 x396 + 4 x456
       + 4 x516 + 4 x576 - 5 x636 <= 0
 c187: 4 x37 + 4 x97 + 4 x157 + 4 x217 + 4 x277 + 4 x337 + 4 x397 + 4 x457
       + 4 x517 + 4 x577 - 5 x637 <= 0
 c188: 4 x38 + 4 x98 + 4 x158 + 4 x218 + 4 x278 + 4 x338 + 4 x398 + 4 x458
       + 4 x518 + 4 x578 - 5 x638 <= 0
 c189: 4 x39 + 4 x99 + 4 x159 + 4 x219 + 4 x279 + 4 x339 + 4 x399 + 4 x459
       + 4 x519 + 4 x579 - 5 x639 <= 0
 c190: 4 x40 + 4 x100 + 4 x160 + 4 x220 + 4 x280 + 4 x340 + 4 x400 + 4 x460
       + 4 x520 + 4 x580 - 5 x640 <= 0
 c191: 4 x41 + 4 x101 + 4 x161 + 4 x221 + 4 x281 + 4 x341 + 4 x401 + 4 x461
       + 4 x521 + 4 x581 - 5 x641 <= 0
 c192: 4 x42 + 4 x102 + 4 x162 + 4 x222 + 4 x282 + 4 x342 + 4 x402 + 4 x462
       + 4 x522 + 4 x582 - 5 x642 <= 0
 c193: 4 x43 + 4 x103 + 4 x163 + 4 x223 + 4 x283 + 4 x343 + 4 x403 + 4 x463
       + 4 x523 + 4 x583 - 5 x643 <= 0
 c194: 4 x44 + 4 x104 + 4 x164 + 4 x224 + 4 x284 + 4 x344 + 4 x404 + 4 x464
       + 4 x524 + 4 x584 - 5 x644 <= 0
 c195: 4 x45 + 4 x105 + 4 x165 + 4 x225 + 4 x285 + 4 x345 + 4 x405 + 4 x465
       + 4 x525 + 4 x585 - 5 x645 <= 0
 c196: 4 x46 + 4 x106 + 4 x166 + 4 x226 + 4 x286 + 4 x346 + 4 x406 + 4 x466
       + 4 x526 + 4 x586 - 5 x646 <= 0
 c197: 4 x47 + 4 x107 + 4 x167 + 4 x227 + 4 x287 + 4 x347 + 4 x407 + 4 x467
       + 4 x527 + 4 x587 - 5 x647 <= 0
 c198: 4 x48 + 4 x108 + 4 x168 + 4 x228 + 4 x288 + 4 x348 + 4 x408 + 4 x468
       + 4 x528 + 4 x588 - 5 x648 <= 0
 c199: 4 x49 + 4 x109 + 4 x169 + 4 x229 + 4 x289 + 4 x349 + 4 x409 + 4 x469
       + 4 x529 + 4 x589 - 5 x649 <= 0
 c200: 4 x50 + 4 x110 + 4 x170 + 4 x230 + 4 x290 + 4 x350 + 4 x410 + 4 x470
       + 4 x530 + 4 x590 - 5 x650 <= 0
 c201: 4 x51 + 4 x111 + 4 x171 + 4 x231 + 4 x291 + 4 x351 + 4 x411 + 4 x471
       + 4 x531 + 4 x591 - 5 x651 <= 0
 c202: 4 x52 + 4 x112 + 4 x172 + 4 x232 + 4 x292 + 4 x352 + 4 x412 + 4 x472
       + 4 x532 + 4 x592 - 5 x652 <= 0
 c203: 4 x53 + 4 x113 + 4 x173 + 4 x233 + 4 x293 + 4 x353 + 4 x413 + 4 x473
       + 4 x533 + 4 x593 - 5 x653 <= 0
 c204: 4 x54 + 4 x114 + 4 x174 + 4 x234 + 4 x294 + 4 x354 + 4 x414 + 4 x474
       + 4 x534 + 4 x594 - 5 x654 <= 0
 c205: 4 x55 + 4 x115 + 4 x175 + 4 x235 + 4 x295 + 4 x355 + 4 x415 + 4 x475
       + 4 x535 + 4 x595 - 5 x655 <= 0
 c206: 4 x56 + 4 x116 + 4 x176 + 4 x236 + 4 x296 + 4 x356 + 4 x416 + 4 x476
       + 4 x536 + 4 x596 - 5 x656 <= 0
 c207: 4 x57 + 4 x117 + 4 x177 + 4 x237 + 4 x297 + 4 x357 + 4 x417 + 4 x477
       + 4 x537 + 4 x597 - 5 x657 <= 0
 c208: 4 x58 + 4 x118 + 4 x178 + 4 x238 + 4 x298 + 4 x358 + 4 x418 + 4 x478
       + 4 x538 + 4 x598 - 5 x658 <= 0
 c209: 4 x59 + 4 x119 + 4 x179 + 4 x239 + 4 x299 + 4 x359 + 4 x419 + 4 x479
       + 4 x539 + 4 x599 - 5 x659 <= 0
 c210: 4 x60 + 4 x120 + 4 x180 + 4 x240 + 4 x300 + 4 x360 + 4 x420 + 4 x480
       + 4 x540 + 4 x600 - 5 x660 <= 0
Bounds
 0 <= x1 <= 1
 0 <= x2 <= 1
 0 <= x3 <= 1
 0 <= x4 <= 1
 0 <= x5 <= 1
 0 <= x6 <= 1
 0 <= x7 <= 1
 0 <= x8 <= 1
 0 <= x9 <= 1
 0 <= x10 <= 1
 0 <= x11 <= 1
 0 <= x12 <= 1
 0 <= x13 <= 1
 0 <= x14 <= 1
 0 <= x15 <= 1
 0 <= x16 <= 1
 0 <= x17 <= 1
 0 <= x18 <= 1
 0 <= x19 <= 1
 0 <= x20 <= 1
 0 <= x21 <= 1
 0 <= x22 <= 1
 0 <= x23 <= 1
 0 <= x24 <= 1
 0 <= x25 <= 1
 0 <= x26 <= 1
 0 <= x27 <= 1
 0 <= x28 <= 1
 0 <= x29 <= 1
 0 <= x30 <= 1
 0 <= x31 <= 1
 0 <= x32 <= 1
 0 <= x33 <= 1
 0 <= x34 <= 1
 0 <= x35 <= 1
 0 <= x36 <= 1
 0 <= x37 <= 1
 0 <= x38 <= 1
 0 <= x39 <= 1
 0 <= x40 <= 1
 0 <= x41 <= 1
 0 <= x42 <= 1
 0 <= x43 <= 1
 0 <= x44 <= 1
 0 <= x45 <= 1
 0 <= x46 <= 1
 0 <= x47 <= 1
 0 <= x48 <= 1
 0 <= x49 <= 1
 0 <= x50 <= 1
 0 <= x51 <= 1
 0 <= x52 <= 1
 0 <= x53 <= 1
 0 <= x54 <= 1
 0 <= x55 <= 1
 0 <= x56 <= 1
 0 <= x57 <= 1
 0 <= x58 <= 1
 0 <= x59 <= 1
 0 <= x60 <= 1
 0 <= x61 <= 1
 0 <= x62 <= 1
 0 <= x63 <= 1
 0 <= x64 <= 1
 0 <= x65 <= 1
 0 <= x66 <= 1
 0 <= x67 <= 1
 0 <= x68 <= 1
 0 <= x69 <= 1
 0 <= x70 <= 1
 0 <= x71 <= 1
 0 <= x72 <= 1
 0 <= x73 <= 1
 0 <= x74 <= 1
 0 <= x75 <= 1
 0 <= x76 <= 1
 0 <= x77 <= 1
 0 <= x78 <= 1
 0 <= x79 <= 1
 0 <= x80 <= 1
 0 <= x81 <= 1
 0 <= x82 <= 1
 0 <= x83 <= 1
 0 <= x84 <= 1
 0 <= x85 <= 1
 0 <= x86 <= 1
 0 <= x87 <= 1
 0 <= x88 <= 1
 0 <= x89 <= 1
 0 <= x90 <= 1
 0 <= x91 <= 1
 0 <= x92 <= 1
 0 <= x93 <= 1
 0 <= x94 <= 1
 0 <= x95 <= 1
 0 <= x96 <= 1
 0 <= x97 <= 1
 0 <= x98 <= 1
 0 <= x99 <= 1
 0 <= x100 <= 1
 0 <= x101 <= 1
 0 <= x102 <= 1
 0 <= x103 <= 1
 0 <= x104 <= 1
 0 <= x105 <= 1
 0 <= x106 <= 1
 0 <= x107 <= 1
 0 <= x108 <= 1
 0 <= x109 <= 1
 0 <= x110 <= 1
 0 <= x111 <= 1
 0 <= x112 <= 1
 0 <= x113 <= 1
 0 <= x114 <= 1
 0 <= x115 <= 1
 0 <= x116 <= 1
 0 <= x117 <= 1
 0 <= x118 <= 1
 0 <= x119 <= 1
 0 <= x120 <= 1
 0 <= x121 <= 1
 0 <= x122 <= 1
 0 <= x123 <= 1
 0 <= x124 <= 1
 0 <= x125 <= 1
 0 <= x126 <= 1
 0 <= x127 <= 1
 0 <= x128 <= 1
 0 <= x129 <= 1
 0 <= x130 <= 1
 0 <= x131 <= 1
 0 <= x132 <= 1
 0 <= x133 <= 1
 0 <= x134 <= 1
 0 <= x135 <= 1
 0 <= x136 <= 1
 0 <= x137 <= 1
 0 <= x138 <= 1
 0 <= x139 <= 1
 0 <= x140 <= 1
 0 <= x141 <= 1
 0 <= x142 <= 1
 0 <= x143 <= 1
 0 <= x144 <= 1
 0 <= x145 <= 1
 0 <= x146 <= 1
 0 <= x147 <= 1
 0 <= x148 <= 1
 0 <= x149 <= 1
 0 <= x150 <= 1
 0 <= x151 <= 1
 0 <= x152 <= 1
 0 <= x153 <= 1
 0 <= x154 <= 1
 0 <= x155 <= 1
 0 <= x156 <= 1
 0 <= x157 <= 1
 0 <= x158 <= 1
 0 <= x159 <= 1
 0 <= x160 <= 1
 0 <= x161 <= 1
 0 <= x162 <= 1
 0 <= x163 <= 1
 0 <= x164 <= 1
 0 <= x165 <= 1
 0 <= x166 <= 1
 0 <= x167 <= 1
 0 <= x168 <= 1
 0 <= x169 <= 1
 0 <= x170 <= 1
 0 <= x171 <= 1
 0 <= x172 <= 1
 0 <= x173 <= 1
 0 <= x174 <= 1
 0 <= x175 <= 1
 0 <= x176 <= 1
 0 <= x177 <= 1
 0 <= x178 <= 1
 0 <= x179 <= 1
 0 <= x180 <= 1
 0 <= x181 <= 1
 0 <= x182 <= 1
 0 <= x183 <= 1
 0 <= x184 <= 1
 0 <= x185 <= 1
 0 <= x186 <= 1
 0 <= x187 <= 1
 0 <= x188 <= 1
 0 <= x189 <= 1
 0 <= x190 <= 1
 0 <= x191 <= 1
 0 <= x192 <= 1
 0 <= x193 <= 1
 0 <= x194 <= 1
 0 <= x195 <= 1
 0 <= x196 <= 1
 0 <= x197 <= 1
 0 <= x198 <= 1
 0 <= x199 <= 1
 0 <= x200 <= 1
 0 <= x201 <= 1
 0 <= x202 <= 1
 0 <= x203 <= 1
 0 <= x204 <= 1
 0 <= x205 <= 1
 0 <= x206 <= 1
 0 <= x207 <= 1
 0 <= x208 <= 1
 0 <= x209 <= 1
 0 <= x210 <= 1
 0 <= x211 <= 1
 0 <= x212 <= 1
 0 <= x213 <= 1
 0 <= x214 <= 1
 0 <= x215 <= 1
 0 <= x216 <= 1
 0 <= x217 <= 1
 0 <= x218 <= 1
 0 <= x219 <= 1
 0 <= x220 <= 1
 0 <= x221 <= 1
 0 <= x222 <= 1
 0 <= x223 <= 1
 0 <= x224 <= 1
 0 <= x225 <= 1
 0 <= x226 <= 1
 0 <= x227 <= 1
 0 <= x228 <= 1
 0 <= x229 <= 1
 0 <= x230 <= 1
 0 <= x231 <= 1
 0 <= x232 <= 1
 0 <= x233 <= 1
 0 <= x234 <= 1
 0 <= x235 <= 1
 0 <= x236 <= 1
 0 <= x237 <= 1
 0 <= x238 <= 1
 0 <= x239 <= 1
 0 <= x240 <= 1
 0 <= x241 <= 1
 0 <= x242 <= 1
 0 <= x243 <= 1
 0 <= x244 <= 1
 0 <= x245 <= 1
 0 <= x246 <= 1
 0 <= x247 <= 1
 0 <= x248 <= 1
 0 <= x249 <= 1
 0 <= x250 <= 1
 0 <= x251 <= 1
 0 <= x252 <= 1
 0 <= x253 <= 1
 0 <= x254 <= 1
 0 <= x255 <= 1
 0 <= x256 <= 1
 0 <= x257 <= 1
 0 <= x258 <= 1
 0 <= x259 <= 1
 0 <= x260 <= 1
 0 <= x261 <= 1
 0 <= x262 <= 1
 0 <= x263 <= 1
 0 <= x264 <= 1
 0 <= x265 <= 1
 0 <= x266 <= 1
 0 <= x267 <= 1
 0 <= x268 <= 1
 0 <= x269 <= 1
 0 <= x270 <= 1
 0 <= x271 <= 1
 0 <= x272 <= 1
 0 <= x273 <= 1
 0 <= x274 <= 1
 0 <= x275 <= 1
 0 <= x276 <= 1
 0 <= x277 <= 1
 0 <= x278 <= 1
 0 <= x279 <= 1
 0 <= x280 <= 1
 0 <= x281 <= 1
 0 <= x282 <= 1
 0 <= x283 <= 1
 0 <= x284 <= 1
 0 <= x285 <= 1
 0 <= x286 <= 1
 0 <= x287 <= 1
 0 <= x288 <= 1
 0 <= x289 <= 1
 0 <= x290 <= 1
 0 <= x291 <= 1
 0 <= x292 <= 1
 0 <= x293 <= 1
 0 <= x294 <= 1
 0 <= x295 <= 1
 0 <= x296 <= 1
 0 <= x297 <= 1
 0 <= x298 <= 1
 0 <= x299 <= 1
 0 <= x300 <= 1
 0 <= x301 <= 1
 0 <= x302 <= 1
 0 <= x303 <= 1
 0 <= x304 <= 1
 0 <= x305 <= 1
 0 <= x306 <= 1
 0 <= x307 <= 1
 0 <= x308 <= 1
 0 <= x309 <= 1
 0 <= x310 <= 1
 0 <= x311 <= 1
 0 <= x312 <= 1
 0 <= x313 <= 1
 0 <= x314 <= 1
 0 <= x315 <= 1
 0 <= x316 <= 1
 0 <= x317 <= 1
 0 <= x318 <= 1
 0 <= x319 <= 1
 0 <= x320 <= 1
 0 <= x321 <= 1
 0 <= x322 <= 1
 0 <= x323 <= 1
 0 <= x324 <= 1
 0 <= x325 <= 1
 0 <= x326 <= 1
 0 <= x327 <= 1
 0 <= x328 <= 1
 0 <= x329 <= 1
 0 <= x330 <= 1
 0 <= x331 <= 1
 0 <= x332 <= 1
 0 <= x333 <= 1
 0 <= x334 <= 1
 0 <= x335 <= 1
 0 <= x336 <= 1
 0 <= x337 <= 1
 0 <= x338 <= 1
 0 <= x339 <= 1
 0 <= x340 <= 1
 0 <= x341 <= 1
 0 <= x342 <= 1
 0 <= x343 <= 1
 0 <= x344 <= 1
 0 <= x345 <= 1
 0 <= x346 <= 1
 0 <= x347 <= 1
 0 <= x348 <= 1
 0 <= x349 <= 1
 0 <= x350 <= 1
 0 <= x351 <= 1
 0 <= x352 <= 1
 0 <= x353 <= 1
 0 <= x354 <= 1
 0 <= x355 <= 1
 0 <= x356 <= 1
 0 <= x357 <= 1
 0 <= x358 <= 1
 0 <= x359 <= 1
 0 <= x360 <= 1
 0 <= x361 <= 1
 0 <= x362 <= 1
 0 <= x363 <= 1
 0 <= x364 <= 1
 0 <= x365 <= 1
 0 <= x366 <= 1
 0 <= x367 <= 1
 0 <= x368 <= 1
 0 <= x369 <= 1
 0 <= x370 <= 1
 0 <= x371 <= 1
 0 <= x372 <= 1
 0 <= x373 <= 1
 0 <= x374 <= 1
 0 <= x375 <= 1
 0 <= x376 <= 1
 0 <= x377 <= 1
 0 <= x378 <= 1
 0 <= x379 <= 1
 0 <= x380 <= 1
 0 <= x381 <= 1
 0 <= x382 <= 1
 0 <= x383 <= 1
 0 <= x384 <= 1
 0 <= x385 <= 1
 0 <= x386 <= 1
 0 <= x387 <= 1
 0 <= x388 <= 1
 0 <= x389 <= 1
 0 <= x390 <= 1
 0 <= x391 <= 1
 0 <= x392 <= 1
 0 <= x393 <= 1
 0 <= x394 <= 1
 0 <= x395 <= 1
 0 <= x396 <= 1
 0 <= x397 <= 1
 0 <= x398 <= 1
 0 <= x399 <= 1
 0 <= x400 <= 1
 0 <= x401 <= 1
 0 <= x402 <= 1
 0 <= x403 <= 1
 0 <= x404 <= 1
 0 <= x405 <= 1
 0 <= x406 <= 1
 0 <= x407 <= 1
 0 <= x408 <= 1
 0 <= x409 <= 1
 0 <= x410 <= 1
 0 <= x411 <= 1
 0 <= x412 <= 1
 0 <= x413 <= 1
 0 <= x414 <= 1
 0 <= x415 <= 1
 0 <= x416 <= 1
 0 <= x417 <= 1
 0 <= x418 <= 1
 0 <= x419 <= 1
 0 <= x420 <= 1
 0 <= x421 <= 1
 0 <= x422 <= 1
 0 <= x423 <= 1
 0 <= x424 <= 1
 0 <= x425 <= 1
 0 <= x426 <= 1
 0 <= x427 <= 1
 0 <= x428 <= 1
 0 <= x429 <= 1
 0 <= x430 <= 1
 0 <= x431 <= 1
 0 <= x432 <= 1
 0 <= x433 <= 1
 0 <= x434 <= 1
 0 <= x435 <= 1
 0 <= x436 <= 1
 0 <= x437 <= 1
 0 <= x438 <= 1
 0 <= x439 <= 1
 0 <= x440 <= 1
 0 <= x441 <= 1
 0 <= x442 <= 1
 0 <= x443 <= 1
 0 <= x444 <= 1
 0 <= x445 <= 1
 0 <= x446 <= 1
 0 <= x447 <= 1
 0 <= x448 <= 1
 0 <= x449 <= 1
 0 <= x450 <= 1
 0 <= x451 <= 1
 0 <= x452 <= 1
 0 <= x453 <= 1
 0 <= x454 <= 1
 0 <= x455 <= 1
 0 <= x456 <= 1
 0 <= x457 <= 1
 0 <= x458 <= 1
 0 <= x459 <= 1
 0 <= x460 <= 1
 0 <= x461 <= 1
 0 <= x462 <= 1
 0 <= x463 <= 1
 0 <= x464 <= 1
 0 <= x465 <= 1
 0 <= x466 <= 1
 0 <= x467 <= 1
 0 <= x468 <= 1
 0 <= x469 <= 1
 0 <= x470 <= 1
 0 <= x471 <= 1
 0 <= x472 <= 1
 0 <= x473 <= 1
 0 <= x474 <= 1
 0 <= x475 <= 1
 0 <= x476 <= 1
 0 <= x477 <= 1
 0 <= x478 <= 1
 0 <= x479 <= 1
 0 <= x480 <= 1
 0 <= x481 <= 1
 0 <= x482 <= 1
 0 <= x483 <= 1
 0 <= x484 <= 1
 0 <= x485 <= 1
 0 <= x486 <= 1
 0 <= x487 <= 1
 0 <= x488 <= 1
 0 <= x489 <= 1
 0 <= x490 <= 1
 0 <= x491 <= 1
 0 <= x492 <= 1
 0 <= x493 <= 1
 0 <= x494 <= 1
 0 <= x495 <= 1
 0 <= x496 <= 1
 0 <= x497 <= 1
 0 <= x498 <= 1
 0 <= x499 <= 1
 0 <= x500 <= 1
 0 <= x501 <= 1
 0 <= x502 <= 1
 0 <= x503 <= 1
 0 <= x504 <= 1
 0 <= x505 <= 1
 0 <= x506 <= 1
 0 <= x507 <= 1
 0 <= x508 <= 1
 0 <= x509 <= 1
 0 <= x510 <= 1
 0 <= x511 <= 1
 0 <= x512 <= 1
 0 <= x513 <= 1
 0 <= x514 <= 1
 0 <= x515 <= 1
 0 <= x516 <= 1
 0 <= x517 <= 1
 0 <= x518 <= 1
 0 <= x519 <= 1
 0 <= x520 <= 1
 0 <= x521 <= 1
 0 <= x522 <= 1
 0 <= x523 <= 1
 0 <= x524 <= 1
 0 <= x525 <= 1
 0 <= x526 <= 1
 0 <= x527 <= 1
 0 <= x528 <= 1
 0 <= x529 <= 1
 0 <= x530 <= 1
 0 <= x531 <= 1
 0 <= x532 <= 1
 0 <= x533 <= 1
 0 <= x534 <= 1
 0 <= x535 <= 1
 0 <= x536 <= 1
 0 <= x537 <= 1
 0 <= x538 <= 1
 0 <= x539 <= 1
 0 <= x540 <= 1
 0 <= x541 <= 1
 0 <= x542 <= 1
 0 <= x543 <= 1
 0 <= x544 <= 1
 0 <= x545 <= 1
 0 <= x546 <= 1
 0 <= x547 <= 1
 0 <= x548 <= 1
 0 <= x549 <= 1
 0 <= x550 <= 1
 0 <= x551 <= 1
 0 <= x552 <= 1
 0 <= x553 <= 1
 0 <= x554 <= 1
 0 <= x555 <= 1
 0 <= x556 <= 1
 0 <= x557 <= 1
 0 <= x558 <= 1
 0 <= x559 <= 1
 0 <= x560 <= 1
 0 <= x561 <= 1
 0 <= x562 <= 1
 0 <= x563 <= 1
 0 <= x564 <= 1
 0 <= x565 <= 1
 0 <= x566 <= 1
 0 <= x567 <= 1
 0 <= x568 <= 1
 0 <= x569 <= 1
 0 <= x570 <= 1
 0 <= x571 <= 1
 0 <= x572 <= 1
 0 <= x573 <= 1
 0 <= x574 <= 1
 0 <= x575 <= 1
 0 <= x576 <= 1
 0 <= x577 <= 1
 0 <= x578 <= 1
 0 <= x579 <= 1
 0 <= x580 <= 1
 0 <= x581 <= 1
 0 <= x582 <= 1
 0 <= x583 <= 1
 0 <= x584 <= 1
 0 <= x585 <= 1
 0 <= x586 <= 1
 0 <= x587 <= 1
 0 <= x588 <= 1
 0 <= x589 <= 1
 0 <= x590 <= 1
 0 <= x591 <= 1
 0 <= x592 <= 1
 0 <= x593 <= 1
 0 <= x594 <= 1
 0 <= x595 <= 1
 0 <= x596 <= 1
 0 <= x597 <= 1
 0 <= x598 <= 1
 0 <= x599 <= 1
 0 <= x600 <= 1
 0 <= x601 <= 1
 0 <= x602 <= 1
 0 <= x603 <= 1
 0 <= x604 <= 1
 0 <= x605 <= 1
 0 <= x606 <= 1
 0 <= x607 <= 1
 0 <= x608 <= 1
 0 <= x609 <= 1
 0 <= x610 <= 1
 0 <= x611 <= 1
 0 <= x612 <= 1
 0 <= x613 <= 1
 0 <= x614 <= 1
 0 <= x615 <= 1
 0 <= x616 <= 1
 0 <= x617 <= 1
 0 <= x618 <= 1
 0 <= x619 <= 1
 0 <= x620 <= 1
 0 <= x621 <= 1
 0 <= x622 <= 1
 0 <= x623 <= 1
 0 <= x624 <= 1
 0 <= x625 <= 1
 0 <= x626 <= 1
 0 <= x627 <= 1
 0 <= x628 <= 1
 0 <= x629 <= 1
 0 <= x630 <= 1
 0 <= x631 <= 1
 0 <= x632 <= 1
 0 <= x633 <= 1
 0 <= x634 <= 1
 0 <= x635 <= 1
 0 <= x636 <= 1
 0 <= x637 <= 1
 0 <= x638 <= 1
 0 <= x639 <= 1
 0 <= x640 <= 1
 0 <= x641 <= 1
 0 <= x642 <= 1
 0 <= x643 <= 1
 0 <= x644 <= 1
 0 <= x645 <= 1
 0 <= x646 <= 1
 0 <= x647 <= 1
 0 <= x648 <= 1
 0 <= x649 <= 1
 0 <= x650 <= 1
 0 <= x651 <= 1
 0 <= x652 <= 1
 0 <= x653 <= 1
 0 <= x654 <= 1
 0 <= x655 <= 1
 0 <= x656 <= 1
 0 <= x657 <= 1
 0 <= x658 <= 1
 0 <= x659 <= 1
 0 <= x660 <= 1
Binaries
 x601  x602  x603  x604  x605  x606  x607  x608  x609  x610  x611  x612  x613 
 x614  x615  x616  x617  x618  x619  x620  x621  x622  x623  x624  x625  x626 
 x627  x628  x629  x630  x631  x632  x633  x634  x635  x636  x637  x638  x639 
 x640  x641  x642  x643  x644  x645  x646  x647  x648  x649  x650  x651  x652 
 x653  x654  x655  x656  x657  x658  x659  x660 
End
